0 0 0 0 0 0 0 0 0 0 0 0 0 0 0 0 0 0 0 0 0 0 0 0
0 0 0 0 0 0 0 0 0 0 0 0 0 0 0 0 0 0 0 0 0 0 0 0
0 0 0 0 0 0 0 0 0 0 0 0 0 0 0 0 0 0 0 0 0 0 0 0
1 1 1 1 1 1 1 2 2 2 2 2 2 2 2 2 2 1 1 1 1 1 1 1
1 3   0 0 0 1 2 2 2 2 2 2 2 2 2 2 1 4   0 0 0 1
1 1 1 1 1 1 1 2 2 2 2 2 2 2 2 2 2 1 1 1 1 1 1 1
1 0 0 0 0 0 1 2 2 2 2 2 2 2 2 2 2 1 0 0 0 0 0 1
1 0 # # # 0 1 2 2 2 2 2 2 2 2 2 2 1 0 # # # 0 1
1 0 # # # 0 1 2 2 2 2 2 2 2 2 2 2 1 0 # # # 0 1
1 0 0 0 0 0 1 2 2 2 2 2 2 2 2 2 2 1 0 0 0 0 0 1
1 1 1 1 1 1 1 2 2 2 2 2 2 2 2 2 2 1 0 # # # 0 1
t 0 0 0 0 0 1 2 2 2 2 2 2 2 2 2 2 1 0 # # # 0 1
0 c 0 0 0 0 1 2 2 2 2 2 2 2 2 2 2 1 0 0 0 0 0 1
0 0 0 0 0 0 1 2 2 2 2 2 2 2 2 2 2 1 0 # # # 0 1
C 0 0 0 0 0 1 2 2 2 2 2 2 2 2 2 2 1 0 # # # 0 1
0 0 0 0 0 0 1 2 2 2 2 2 2 2 2 2 2 1 0 0 0 0 0 1
A 0 0 0 0 0 1 2 2 2 2 2 2 2 2 2 2 1 0 # # # 0 1
0 0 0 0 0 0 1 2 2 2 2 2 2 2 2 2 2 1 0 # # # 0 1
0 l 0 0 0 0 1 2 2 2 2 2 2 2 2 2 2 1 0 0 0 0 0 1
0 0 m 0 0 0 1 2 2 2 2 2 2 2 2 2 2 1 0 # # # 0 1
0 s 0 0 0 0 1 2 2 2 2 2 2 2 2 2 2 1 0 # # # 0 1
u 0 0 0 0 0 1 2 2 2 2 2 2 2 2 2 2 1 0 0 0 0 0 1
0 0 0 0 0 0 1 2 2 2 2 2 2 2 2 2 2 1 1 1 1 1 1 1
0 0 0 0 0 0 1 1 1 1 1 1 1 1 1 1 1 1 0 0 0 0 0 0